 Code  2333
 Dimension, Fixed Cost
   100        3000
 Facility, Client, Transportation Cost
     1        7           0
     1       26           4
     1       28           2
     1       29           3
     1       31           3
     1       37           0
     1       42           4
     1       44           3
     1       54           2
     1       79           0
     2       12           2
     2       13           0
     2       32           0
     2       44           0
     2       56           1
     2       60           2
     2       70           4
     2       82           0
     2       85           4
     2       86           1
     3        4           4
     3        8           2
     3       10           1
     3       11           4
     3       22           2
     3       29           0
     3       32           4
     3       41           1
     3       65           0
     3       76           0
     4        1           4
     4        5           0
     4       18           1
     4       36           1
     4       39           2
     4       57           1
     4       58           3
     4       62           4
     4       66           2
     4       71           3
     5       19           3
     5       32           2
     5       61           4
     5       63           0
     5       78           2
     5       80           0
     5       87           1
     5       92           0
     5       93           1
     5       97           2
     6       11           1
     6       13           4
     6       27           2
     6       36           3
     6       41           3
     6       44           0
     6       47           4
     6       60           3
     6       84           0
     6       88           3
     7        8           0
     7       15           2
     7       40           0
     7       42           3
     7       44           1
     7       47           3
     7       49           3
     7       59           0
     7       72           1
     7       73           2
     8       15           0
     8       36           3
     8       43           3
     8       50           1
     8       64           4
     8       65           2
     8       68           2
     8       71           0
     8       74           2
     8       91           3
     9       16           0
     9       57           3
     9       66           1
     9       68           1
     9       70           3
     9       78           2
     9       79           3
     9       85           1
     9       89           3
     9       94           3
    10       21           1
    10       24           3
    10       30           1
    10       47           0
    10       55           0
    10       59           2
    10       69           4
    10       71           1
    10       80           0
    10       84           0
    11       12           1
    11       21           0
    11       23           0
    11       35           0
    11       37           1
    11       43           2
    11       51           1
    11       58           4
    11       69           4
    11       71           1
    12       14           2
    12       21           1
    12       25           4
    12       43           4
    12       49           1
    12       74           3
    12       87           1
    12       93           2
    12       94           3
    12       98           1
    13        4           3
    13       11           0
    13       21           0
    13       23           2
    13       39           0
    13       44           2
    13       71           4
    13       90           2
    13       94           2
    13       95           4
    14        2           1
    14        8           0
    14       10           1
    14       11           0
    14       17           3
    14       23           1
    14       37           1
    14       50           0
    14       56           0
    14       67           0
    15        9           3
    15       17           0
    15       27           4
    15       34           3
    15       37           1
    15       51           2
    15       52           4
    15       57           1
    15       65           2
    15       77           1
    16        2           3
    16       17           1
    16       27           3
    16       30           4
    16       31           1
    16       44           4
    16       55           1
    16       56           2
    16       57           2
    16       59           0
    17        4           4
    17       26           2
    17       42           3
    17       46           0
    17       48           0
    17       49           1
    17       64           1
    17       67           2
    17       74           0
    17       97           0
    18        7           4
    18       31           4
    18       38           3
    18       40           1
    18       43           1
    18       72           0
    18       73           3
    18       75           4
    18       82           4
    18       85           0
    19        2           3
    19        3           4
    19       19           4
    19       22           2
    19       30           4
    19       32           2
    19       33           4
    19       38           3
    19       46           0
    19       48           2
    20        3           3
    20       12           4
    20       30           1
    20       42           4
    20       45           2
    20       49           1
    20       53           3
    20       71           0
    20       80           2
    20       90           0
    21        6           4
    21       12           3
    21       18           4
    21       23           1
    21       24           2
    21       26           2
    21       33           1
    21       40           2
    21       52           1
    21       54           4
    22        6           3
    22        9           0
    22       30           3
    22       32           0
    22       33           4
    22       46           2
    22       51           1
    22       53           2
    22       60           3
    22       61           0
    23       13           2
    23       14           1
    23       15           0
    23       28           2
    23       30           2
    23       46           3
    23       68           1
    23       72           3
    23       77           4
    23       93           1
    24       23           0
    24       31           1
    24       36           4
    24       37           0
    24       38           2
    24       45           1
    24       62           0
    24       90           4
    24       95           3
    24       99           2
    25        3           1
    25        5           1
    25       13           2
    25       19           3
    25       20           0
    25       34           1
    25       38           0
    25       45           4
    25       59           4
    25       77           0
    26       18           4
    26       36           3
    26       53           1
    26       60           4
    26       86           2
    26       91           3
    26       92           3
    26       94           3
    26       96           3
    26       98           4
    27        3           3
    27       10           4
    27       35           0
    27       46           4
    27       58           0
    27       62           4
    27       78           1
    27       83           2
    27       88           1
    27       89           3
    28        6           3
    28       19           2
    28       24           2
    28       33           2
    28       40           0
    28       42           4
    28       53           4
    28       70           2
    28       86           3
    28       88           3
    29        6           3
    29       19           4
    29       49           0
    29       51           0
    29       59           1
    29       60           1
    29       73           2
    29       83           2
    29       93           1
    29       96           4
    30        7           4
    30       17           2
    30       26           0
    30       32           3
    30       53           3
    30       54           1
    30       67           2
    30       73           1
    30       74           3
    30       79           1
    31       18           0
    31       31           3
    31       32           2
    31       43           1
    31       49           0
    31       53           1
    31       55           1
    31       76           4
    31       85           2
    31       88           3
    32        2           3
    32       13           0
    32       21           2
    32       24           3
    32       26           1
    32       46           1
    32       52           1
    32       53           2
    32       59           3
    32       61           2
    33        7           4
    33       10           2
    33       13           2
    33       19           3
    33       24           3
    33       28           3
    33       29           3
    33       34           3
    33       43           4
    33       53           1
    34       22           1
    34       33           2
    34       38           0
    34       50           4
    34       55           0
    34       87           3
    34       90           0
    34       93           0
    34       94           4
    34       95           0
    35       10           4
    35       15           4
    35       16           2
    35       22           4
    35       42           0
    35       61           4
    35       64           1
    35       74           0
    35       78           0
    35       91           0
    36        6           3
    36       30           2
    36       45           4
    36       64           1
    36       69           4
    36       84           0
    36       87           3
    36       95           2
    36       96           4
    36      100           4
    37        7           0
    37        8           0
    37       14           4
    37       25           1
    37       41           3
    37       42           3
    37       64           4
    37       74           1
    37       77           2
    37       81           4
    38        5           4
    38        8           2
    38       15           4
    38       24           3
    38       35           0
    38       39           1
    38       41           1
    38       44           4
    38       56           0
    38       63           4
    39        1           3
    39        9           1
    39       12           3
    39       35           4
    39       39           2
    39       41           0
    39       46           2
    39       65           4
    39       70           4
    39       73           4
    40        4           2
    40        6           0
    40       19           2
    40       20           1
    40       21           0
    40       33           1
    40       47           3
    40       55           3
    40       63           2
    40       74           0
    41        3           0
    41        5           0
    41       11           2
    41       27           3
    41       31           0
    41       35           1
    41       56           2
    41       60           1
    41       78           3
    41       84           2
    42       27           4
    42       36           3
    42       41           0
    42       53           2
    42       70           1
    42       76           1
    42       79           0
    42       82           1
    42       84           0
    42       86           2
    43        2           2
    43       15           4
    43       22           0
    43       33           2
    43       38           1
    43       43           2
    43       50           4
    43       55           0
    43       58           2
    43       67           1
    44       12           3
    44       18           1
    44       22           3
    44       23           0
    44       36           4
    44       39           0
    44       45           2
    44       54           1
    44       68           4
    44       76           0
    45        3           3
    45        4           3
    45        7           3
    45       10           3
    45       12           4
    45       18           4
    45       27           4
    45       29           3
    45       39           4
    45       46           0
    46       41           2
    46       46           1
    46       47           0
    46       48           2
    46       50           2
    46       61           1
    46       63           2
    46       71           3
    46       72           3
    46       75           2
    47       21           0
    47       24           0
    47       42           3
    47       44           3
    47       45           4
    47       50           0
    47       64           4
    47       97           0
    47       98           2
    47       99           1
    48        1           0
    48        8           2
    48       38           0
    48       39           1
    48       44           1
    48       54           0
    48       60           2
    48       78           3
    48       83           0
    48       90           4
    49       19           3
    49       29           0
    49       31           1
    49       40           2
    49       51           2
    49       52           0
    49       58           3
    49       69           4
    49       72           4
    49       78           2
    50       13           0
    50       16           4
    50       34           3
    50       43           2
    50       67           2
    50       70           0
    50       72           2
    50       74           4
    50       82           1
    50       89           4
    51        1           4
    51        6           2
    51        7           3
    51       34           1
    51       37           3
    51       56           4
    51       65           3
    51       68           3
    51       81           2
    51       87           2
    52        7           3
    52       20           4
    52       25           1
    52       28           2
    52       34           3
    52       35           2
    52       41           1
    52       48           3
    52       74           4
    52       83           0
    53       28           0
    53       46           2
    53       48           3
    53       67           4
    53       76           0
    53       77           2
    53       83           4
    53       85           0
    53       92           0
    53       94           3
    54       27           4
    54       28           0
    54       31           0
    54       42           4
    54       54           1
    54       72           1
    54       75           0
    54       77           1
    54       79           4
    54       82           4
    55       22           2
    55       32           1
    55       38           2
    55       51           3
    55       54           2
    55       63           3
    55       75           4
    55       85           3
    55       89           3
    55       91           2
    56        1           2
    56       11           0
    56       17           2
    56       18           2
    56       43           3
    56       50           1
    56       61           2
    56       67           0
    56       75           0
    56       76           2
    57        3           0
    57        8           3
    57       20           1
    57       44           4
    57       45           2
    57       50           0
    57       70           4
    57       82           3
    57       85           3
    57       87           4
    58       33           2
    58       37           1
    58       50           1
    58       71           4
    58       75           0
    58       78           2
    58       81           0
    58       89           3
    58       93           4
    58       94           0
    59       20           0
    59       24           2
    59       69           4
    59       80           1
    59       81           2
    59       83           3
    59       95           2
    59       98           4
    59       99           0
    59      100           0
    60       10           2
    60       16           2
    60       22           0
    60       48           3
    60       82           3
    60       91           0
    60       97           2
    60       98           2
    60       99           2
    60      100           1
    61        6           1
    61       49           0
    61       56           1
    61       61           4
    61       63           1
    61       64           1
    61       75           1
    61       80           3
    61       81           0
    61       82           4
    62        4           4
    62       20           2
    62       26           3
    62       39           4
    62       64           1
    62       66           4
    62       75           3
    62       84           4
    62       90           1
    62       94           0
    63       13           4
    63       14           3
    63       16           3
    63       31           4
    63       48           4
    63       59           4
    63       66           3
    63       71           2
    63       72           2
    63       82           2
    64        5           4
    64       14           4
    64       17           1
    64       20           0
    64       40           0
    64       41           3
    64       59           0
    64       61           2
    64       62           3
    64       81           0
    65        3           0
    65        5           2
    65        6           4
    65       14           1
    65       21           4
    65       29           1
    65       30           4
    65       32           1
    65       36           4
    65       45           0
    66       23           3
    66       65           4
    66       76           4
    66       80           2
    66       84           0
    66       86           3
    66       95           1
    66       96           4
    66       99           0
    66      100           0
    67       23           4
    67       25           0
    67       33           2
    67       35           1
    67       47           2
    67       49           3
    67       52           4
    67       53           3
    67       60           4
    67       76           3
    68        3           3
    68       12           4
    68       20           0
    68       21           3
    68       37           4
    68       51           2
    68       68           3
    68       80           2
    68       91           2
    68       96           2
    69        2           2
    69        9           4
    69       24           4
    69       37           3
    69       48           2
    69       57           3
    69       79           2
    69       85           1
    69       91           0
    69       92           0
    70       34           2
    70       49           2
    70       55           3
    70       65           2
    70       81           2
    70       86           3
    70       97           3
    70       98           3
    70       99           0
    70      100           2
    71        9           4
    71       11           1
    71       35           1
    71       48           1
    71       59           2
    71       60           0
    71       62           1
    71       66           1
    71       79           3
    71       89           4
    72        1           2
    72       16           4
    72       47           3
    72       51           2
    72       58           0
    72       64           1
    72       69           4
    72       88           1
    72       89           0
    72       91           1
    73        9           0
    73       10           4
    73       30           4
    73       38           0
    73       56           3
    73       57           0
    73       63           2
    73       69           4
    73       79           4
    73       92           4
    74        5           0
    74        9           3
    74       10           1
    74       14           4
    74       15           0
    74       27           0
    74       29           2
    74       40           2
    74       56           4
    74       63           4
    75       16           2
    75       18           3
    75       48           3
    75       52           1
    75       55           3
    75       73           3
    75       83           4
    75       84           4
    75       92           2
    75       96           2
    76        5           4
    76       59           3
    76       63           1
    76       77           4
    76       88           1
    76       96           4
    76       97           1
    76       98           1
    76       99           4
    76      100           1
    77        8           4
    77       22           4
    77       26           4
    77       41           3
    77       66           4
    77       71           1
    77       73           1
    77       83           4
    77       85           4
    77       89           2
    78        5           1
    78       18           3
    78       27           1
    78       30           1
    78       47           1
    78       52           2
    78       58           0
    78       62           3
    78       77           4
    78       79           1
    79        4           1
    79       11           1
    79       28           0
    79       34           3
    79       52           3
    79       57           2
    79       68           4
    79       84           1
    79       86           0
    79       88           4
    80        1           1
    80       17           1
    80       22           1
    80       36           4
    80       69           2
    80       89           0
    80       93           2
    80       95           3
    80       97           3
    80      100           0
    81        9           0
    81       11           0
    81       13           0
    81       14           1
    81       15           4
    81       17           3
    81       19           3
    81       24           1
    81       25           0
    81       29           1
    82        2           0
    82        8           1
    82       19           2
    82       23           3
    82       32           3
    82       38           0
    82       62           3
    82       68           4
    82       77           4
    82       80           3
    83       26           2
    83       27           4
    83       33           2
    83       43           2
    83       51           0
    83       54           4
    83       65           3
    83       66           0
    83       73           4
    83       95           1
    84        1           3
    84        4           1
    84        7           1
    84       40           2
    84       58           0
    84       81           2
    84       87           1
    84       90           4
    84       92           1
    84       94           0
    85        2           4
    85        4           0
    85        6           2
    85       17           0
    85       37           3
    85       58           3
    85       62           2
    85       81           2
    85       85           1
    85       86           3
    86        4           2
    86       28           2
    86       51           2
    86       52           0
    86       61           0
    86       65           2
    86       83           1
    86       86           3
    86       90           4
    86       93           2
    87       16           0
    87       28           2
    87       39           3
    87       45           3
    87       47           4
    87       57           2
    87       58           1
    87       75           0
    87       91           1
    87       93           0
    88        1           3
    88        7           0
    88       10           4
    88       16           0
    88       21           0
    88       28           3
    88       62           0
    88       64           1
    88       67           0
    88       70           4
    89       26           2
    89       29           0
    89       50           2
    89       91           1
    89       92           0
    89       96           3
    89       97           0
    89       98           2
    89       99           1
    89      100           4
    90       25           0
    90       35           0
    90       76           2
    90       83           1
    90       95           3
    90       96           4
    90       97           1
    90       98           3
    90       99           4
    90      100           0
    91        5           4
    91       14           4
    91       25           2
    91       42           0
    91       56           3
    91       57           3
    91       76           4
    91       80           2
    91       84           1
    91       93           0
    92       12           1
    92       34           4
    92       40           3
    92       87           3
    92       95           3
    92       96           0
    92       97           0
    92       98           0
    92       99           3
    92      100           2
    93       11           4
    93       18           4
    93       20           1
    93       36           4
    93       39           3
    93       40           1
    93       54           4
    93       60           1
    93       61           3
    93       62           3
    94        9           0
    94       16           1
    94       25           0
    94       68           2
    94       70           1
    94       72           0
    94       80           4
    94       87           0
    94       88           3
    94       94           0
    95        1           4
    95        3           0
    95       14           2
    95       25           2
    95       29           1
    95       31           4
    95       35           3
    95       55           2
    95       66           0
    95       82           0
    96        8           2
    96        9           2
    96       15           1
    96       49           0
    96       55           1
    96       67           0
    96       69           2
    96       72           2
    96       73           3
    96       81           0
    97        2           4
    97       13           3
    97       17           4
    97       47           2
    97       54           3
    97       66           2
    97       67           0
    97       75           3
    97       77           3
    97       78           1
    98       25           1
    98       45           1
    98       63           2
    98       69           2
    98       78           2
    98       79           0
    98       86           0
    98       89           4
    98       90           3
    98       92           4
    99        2           3
    99       12           3
    99       23           1
    99       52           0
    99       57           1
    99       66           1
    99       68           2
    99       73           4
    99       87           0
    99       88           3
   100       15           2
   100       20           4
   100       26           0
   100       34           2
   100       65           3
   100       70           1
   100       74           3
   100       88           2
   100       90           4
   100       92           3
